benchmarks_CP/INST_36x36/25/inst36x36_25_22.dzn
S=6;
start=[|
-1,	-1,	35,	-1,	30,	-1,	-1,	-1,	32,	-1,	-1,	-1,	-1,	-1,	18,	-1,	-1,	-1,	29,	-1,	-1,	-1,	-1,	-1,	27,	-1,	-1,	-1,	-1,	-1,	-1,	-1,	-1,	-1,	-1,	-1|
-1,	-1,	7,	-1,	-1,	-1,	36,	12,	-1,	-1,	31,	-1,	-1,	-1,	-1,	-1,	2,	-1,	-1,	17,	34,	15,	-1,	-1,	-1,	-1,	-1,	-1,	-1,	-1,	-1,	-1,	-1,	-1,	-1,	4|
-1,	-1,	21,	-1,	-1,	-1,	-1,	-1,	-1,	18,	26,	-1,	-1,	-1,	-1,	-1,	14,	-1,	-1,	-1,	-1,	-1,	-1,	-1,	-1,	-1,	28,	-1,	-1,	-1,	34,	-1,	-1,	31,	15,	-1|
-1,	-1,	-1,	-1,	-1,	-1,	15,	10,	-1,	-1,	-1,	-1,	-1,	32,	-1,	20,	-1,	-1,	-1,	-1,	-1,	-1,	-1,	4,	-1,	-1,	-1,	22,	12,	-1,	-1,	-1,	-1,	13,	-1,	14|
-1,	-1,	-1,	-1,	-1,	8,	-1,	-1,	-1,	33,	-1,	-1,	-1,	6,	-1,	-1,	27,	1,	-1,	-1,	-1,	-1,	-1,	-1,	36,	-1,	-1,	3,	-1,	-1,	-1,	-1,	29,	-1,	-1,	2|
17,	-1,	-1,	-1,	26,	15,	-1,	8,	-1,	-1,	-1,	-1,	-1,	30,	-1,	-1,	-1,	11,	-1,	-1,	-1,	-1,	1,	-1,	-1,	7,	-1,	-1,	-1,	-1,	-1,	-1,	-1,	-1,	-1,	-1|
-1,	-1,	-1,	-1,	-1,	-1,	-1,	-1,	11,	-1,	-1,	-1,	-1,	-1,	-1,	-1,	-1,	-1,	-1,	-1,	8,	-1,	13,	-1,	-1,	12,	-1,	35,	-1,	-1,	26,	31,	7,	-1,	-1,	-1|
-1,	-1,	-1,	-1,	-1,	29,	-1,	17,	33,	-1,	-1,	-1,	-1,	-1,	-1,	-1,	13,	-1,	-1,	-1,	-1,	-1,	-1,	-1,	-1,	23,	-1,	-1,	27,	-1,	12,	-1,	-1,	36,	-1,	-1|
-1,	-1,	-1,	14,	-1,	-1,	8,	-1,	-1,	-1,	13,	-1,	11,	-1,	30,	-1,	-1,	-1,	-1,	35,	-1,	-1,	-1,	-1,	-1,	-1,	-1,	-1,	-1,	10,	-1,	-1,	-1,	-1,	-1,	-1|
-1,	-1,	6,	-1,	-1,	-1,	-1,	21,	-1,	-1,	-1,	7,	-1,	33,	23,	29,	15,	25,	-1,	-1,	10,	28,	4,	-1,	30,	-1,	8,	-1,	-1,	22,	13,	11,	-1,	-1,	-1,	-1|
10,	-1,	33,	-1,	-1,	11,	-1,	-1,	25,	2,	-1,	-1,	4,	-1,	-1,	-1,	-1,	-1,	-1,	29,	-1,	-1,	7,	-1,	-1,	-1,	-1,	-1,	17,	-1,	-1,	-1,	-1,	-1,	-1,	3|
9,	-1,	-1,	18,	-1,	-1,	30,	-1,	31,	-1,	-1,	-1,	-1,	-1,	-1,	-1,	8,	3,	11,	-1,	-1,	12,	-1,	-1,	-1,	-1,	-1,	-1,	-1,	-1,	-1,	-1,	-1,	-1,	28,	6|
27,	-1,	-1,	3,	-1,	-1,	-1,	-1,	-1,	21,	-1,	-1,	-1,	-1,	-1,	-1,	-1,	32,	-1,	-1,	-1,	-1,	-1,	16,	-1,	30,	11,	-1,	-1,	-1,	-1,	-1,	-1,	-1,	-1,	8|
25,	-1,	30,	-1,	-1,	24,	27,	16,	12,	26,	-1,	-1,	-1,	-1,	-1,	36,	19,	-1,	-1,	8,	3,	11,	28,	-1,	-1,	-1,	34,	-1,	-1,	-1,	-1,	-1,	2,	18,	14,	-1|
-1,	16,	-1,	6,	15,	32,	-1,	3,	-1,	10,	-1,	-1,	-1,	11,	-1,	-1,	31,	-1,	-1,	-1,	14,	-1,	-1,	-1,	-1,	22,	-1,	-1,	-1,	-1,	-1,	27,	-1,	-1,	12,	-1|
-1,	-1,	-1,	-1,	14,	-1,	-1,	-1,	-1,	35,	-1,	-1,	-1,	-1,	-1,	-1,	-1,	-1,	19,	-1,	-1,	-1,	-1,	-1,	-1,	-1,	-1,	-1,	-1,	-1,	28,	-1,	5,	-1,	-1,	-1|
-1,	-1,	-1,	21,	-1,	7,	-1,	-1,	30,	-1,	-1,	-1,	-1,	-1,	14,	-1,	-1,	-1,	-1,	-1,	15,	-1,	-1,	-1,	-1,	-1,	-1,	-1,	-1,	-1,	-1,	-1,	-1,	-1,	26,	-1|
-1,	-1,	2,	-1,	-1,	12,	-1,	-1,	-1,	-1,	-1,	-1,	-1,	-1,	28,	-1,	10,	-1,	-1,	-1,	-1,	31,	-1,	-1,	-1,	-1,	-1,	-1,	-1,	29,	16,	-1,	-1,	-1,	-1,	-1|
-1,	-1,	-1,	-1,	22,	-1,	-1,	-1,	-1,	-1,	-1,	-1,	-1,	-1,	-1,	-1,	-1,	-1,	-1,	-1,	-1,	-1,	-1,	-1,	-1,	-1,	-1,	-1,	-1,	-1,	27,	-1,	15,	-1,	32,	-1|
-1,	-1,	-1,	-1,	-1,	-1,	34,	6,	-1,	32,	-1,	22,	-1,	-1,	15,	23,	-1,	-1,	-1,	-1,	-1,	-1,	-1,	-1,	12,	-1,	-1,	-1,	28,	-1,	-1,	-1,	-1,	-1,	-1,	-1|
26,	-1,	-1,	27,	-1,	-1,	-1,	-1,	-1,	31,	23,	5,	-1,	-1,	-1,	-1,	-1,	-1,	-1,	-1,	-1,	-1,	-1,	3,	-1,	-1,	-1,	-1,	-1,	8,	20,	12,	-1,	-1,	-1,	-1|
6,	19,	-1,	10,	23,	4,	-1,	11,	26,	-1,	-1,	-1,	30,	-1,	29,	-1,	-1,	-1,	-1,	-1,	-1,	17,	-1,	9,	-1,	-1,	-1,	-1,	7,	3,	-1,	14,	31,	22,	-1,	21|
-1,	-1,	-1,	-1,	-1,	35,	-1,	-1,	7,	-1,	12,	-1,	-1,	-1,	-1,	27,	-1,	-1,	-1,	-1,	-1,	-1,	33,	-1,	-1,	11,	-1,	-1,	-1,	26,	-1,	-1,	-1,	2,	-1,	-1|
-1,	-1,	-1,	-1,	-1,	-1,	25,	-1,	-1,	-1,	9,	-1,	32,	-1,	2,	-1,	-1,	-1,	-1,	-1,	-1,	19,	-1,	-1,	-1,	-1,	10,	36,	22,	-1,	-1,	-1,	18,	26,	11,	-1|
-1,	27,	-1,	-1,	29,	-1,	17,	-1,	-1,	-1,	-1,	-1,	-1,	-1,	16,	4,	-1,	-1,	-1,	-1,	-1,	-1,	-1,	-1,	32,	-1,	-1,	-1,	-1,	-1,	-1,	-1,	-1,	-1,	19,	31|
-1,	15,	-1,	-1,	-1,	10,	-1,	-1,	-1,	-1,	4,	-1,	3,	-1,	6,	-1,	-1,	-1,	-1,	-1,	-1,	-1,	-1,	31,	19,	-1,	-1,	-1,	25,	20,	-1,	-1,	-1,	-1,	13,	28|
-1,	5,	25,	-1,	21,	-1,	-1,	13,	-1,	22,	-1,	-1,	-1,	-1,	-1,	-1,	-1,	-1,	-1,	-1,	26,	-1,	-1,	-1,	18,	-1,	-1,	-1,	-1,	23,	-1,	10,	-1,	24,	-1,	-1|
-1,	-1,	9,	32,	6,	-1,	-1,	-1,	-1,	-1,	-1,	-1,	-1,	-1,	-1,	18,	12,	8,	-1,	20,	-1,	-1,	25,	23,	28,	-1,	-1,	-1,	-1,	-1,	15,	1,	16,	-1,	-1,	-1|
-1,	1,	-1,	-1,	-1,	-1,	32,	5,	-1,	8,	33,	-1,	-1,	-1,	-1,	-1,	36,	-1,	9,	-1,	-1,	-1,	-1,	-1,	35,	-1,	-1,	-1,	-1,	-1,	-1,	25,	-1,	-1,	-1,	-1|
-1,	-1,	-1,	26,	-1,	-1,	-1,	25,	1,	-1,	-1,	-1,	-1,	-1,	-1,	-1,	-1,	-1,	-1,	-1,	-1,	-1,	-1,	-1,	-1,	-1,	-1,	17,	29,	-1,	-1,	-1,	-1,	-1,	-1,	-1|
-1,	-1,	-1,	17,	-1,	-1,	-1,	-1,	-1,	-1,	-1,	-1,	18,	-1,	-1,	16,	-1,	26,	-1,	-1,	24,	25,	-1,	-1,	-1,	-1,	-1,	-1,	-1,	-1,	-1,	-1,	-1,	-1,	-1,	12|
-1,	-1,	-1,	-1,	-1,	-1,	12,	-1,	2,	-1,	-1,	-1,	23,	-1,	-1,	-1,	32,	-1,	17,	-1,	-1,	8,	-1,	-1,	-1,	15,	4,	-1,	34,	-1,	-1,	-1,	-1,	-1,	-1,	-1|
-1,	22,	-1,	-1,	-1,	30,	-1,	33,	-1,	-1,	-1,	-1,	-1,	-1,	11,	-1,	-1,	-1,	-1,	-1,	16,	2,	-1,	-1,	-1,	-1,	-1,	-1,	-1,	-1,	-1,	18,	9,	-1,	-1,	34|
-1,	-1,	-1,	-1,	-1,	-1,	-1,	-1,	-1,	-1,	-1,	-1,	-1,	-1,	9,	-1,	-1,	4,	-1,	-1,	11,	34,	-1,	-1,	-1,	-1,	-1,	-1,	21,	-1,	32,	-1,	26,	23,	2,	-1|
-1,	-1,	-1,	-1,	-1,	-1,	16,	23,	-1,	-1,	-1,	-1,	-1,	-1,	-1,	-1,	-1,	29,	-1,	-1,	-1,	-1,	19,	-1,	-1,	-1,	-1,	12,	-1,	-1,	-1,	13,	-1,	-1,	21,	-1|
-1,	-1,	-1,	-1,	-1,	-1,	-1,	-1,	18,	-1,	-1,	10,	13,	-1,	-1,	25,	-1,	-1,	-1,	15,	-1,	-1,	-1,	-1,	17,	-1,	-1,	-1,	-1,	-1,	29,	-1,	-1,	-1,	-1,	-1|];
